<number of tasks>
20

<cycle time>
1000

<order strength>
0,8


<task times>
1 479
2 506
3 485
4 424
5 448
6 570
7 551
8 371
9 567
10 473
11 463
12 639
13 563
14 497
15 216
16 526
17 538
18 484
19 307
20 578

<precedence relations>
1,3
1,4
2,3
2,4
3,5
3,6
3,7
4,6
4,7
5,9
6,8
6,11
7,8
8,10
9,11
10,12
10,13
10,14
11,12
11,13
11,14
12,15
12,16
13,17
14,18
17,18
18,19
18,20

<end>
